10	5
0	1	1
1	1	2
2	1	3
3	1	9
4	2	8	5
5	1	7
6	1	4
7	1	11
8	1	11
9	1	11
10	1	11
11	0
0	0	0	0	0	0	0
1	8	2	5	4	5	2
2	10	5	1	4	3	5
3	2	3	3	5	3	2
4	8	0	0	5	0	0
5	9	5	1	2	0	0
6	7	5	2	5	5	2
7	5	0	3	5	0	1
8	7	3	4	0	0	4
9	5	2	5	2	1	4
10	10	1	0	0	3	5
11	0	0	0	0	0	0
6	5	4	6	8
